%chk=output\7_mmff_0.chk
#p B3LYP/6-31G(d) Opt

Gaussian job

0 1
Cl 6.648794 1.162497 -0.683117
C 5.025386 0.662846 -0.414435
C 3.973112 1.434779 -0.896527
C 2.654023 1.024998 -0.675941
C 4.769190 -0.513588 0.285278
C 3.448432 -0.922951 0.505583
C 2.372255 -0.158551 0.027555
C 0.985835 -0.573892 0.250215
N -0.061419 0.138760 -0.196232
N -1.132452 -0.586053 0.217694
C -2.466622 -0.178864 -0.051206
C -3.544572 -0.960348 0.396531
C -4.854656 -0.556152 0.129873
C -5.081643 0.619134 -0.578194
F -6.339450 1.003027 -0.831709
C -4.023765 1.402351 -1.027341
C -2.710354 1.005995 -0.765321
N -0.850326 -1.722870 0.903761
C 0.482895 -1.709945 0.921074
H 4.166541 2.353872 -1.443302
H 1.843288 1.642051 -1.060732
H 5.590781 -1.117475 0.662393
H 3.286477 -1.846287 1.055498
H -3.378742 -1.881989 0.951561
H -5.697601 -1.149880 0.469575
H -4.227701 2.315428 -1.577940
H -1.890412 1.626781 -1.121663
H 1.012706 -2.513671 1.412330

